c random clauses
p cnf 10 32
-10 -9 -8 -7 -4 -2 -1 6 0
-10 -9 -6 -5 -4 -3 2 7 0
-10 -9 -4 -3 -2 1 5 7 0
-10 -8 -7 -2 3 4 5 6 0
-10 -8 -6 -3 -1 2 4 5 0
-10 -8 -6 -3 4 5 7 9 0
-10 -8 -2 -1 3 4 7 9 0
-10 -7 -6 -3 1 5 8 9 0
-10 -7 -6 -2 1 4 5 9 0
-10 -7 -1 2 4 6 8 9 0
-10 -6 -4 -2 -1 5 7 9 0
-10 -5 -2 1 3 6 7 9 0
-10 -4 -2 -1 5 6 8 9 0
-9 -8 -7 -3 -2 -1 4 6 0
-9 -8 -5 -3 2 6 7 10 0
-9 -7 -6 -5 1 2 3 10 0
-9 -7 -6 -4 -3 2 8 10 0
-9 -7 -6 -3 1 2 5 10 0
-9 -7 -1 3 5 6 8 10 0
-9 -6 -5 -3 -2 -1 8 10 0
-9 -6 -5 -3 -1 2 8 10 0
-8 -7 -5 -2 1 3 6 10 0
-8 -7 -4 -2 1 3 5 10 0
-8 -6 -4 -3 1 7 9 10 0
-8 -5 -4 -3 1 2 7 9 0
-8 -1 3 4 5 6 7 10 0
-7 -6 -4 1 3 8 9 10 0
-7 -5 -3 -2 -1 6 8 9 0
-7 -4 -3 1 2 8 9 10 0
-6 -3 1 2 5 7 8 9 0
1 2 3 4 5 6 8 9 0
1 3 4 5 6 7 8 10 0
